c Generated map
c Size: 8 * 8, weights in range: 1 to 10, walls: True, with ratio 0.05
c dim 1 of 10
c
p sp 64 103
c graph contains 64 nodes and 103 arcs
c
a 1 2 8
a 2 1 8
a 2 10 9
a 10 2 9
a 2 3 5
a 3 2 5
a 3 11 6
a 11 3 6
a 3 4 7
a 4 3 7
a 4 12 6
a 12 4 6
a 4 5 4
a 5 4 4
a 5 13 7
a 13 5 7
a 5 6 3
a 6 5 3
a 6 14 3
a 14 6 3
a 6 7 10
a 7 6 10
a 7 15 10
a 15 7 10
a 7 8 10
a 8 7 10
a 8 16 2
a 16 8 2
a 10 18 3
a 18 10 3
a 10 11 4
a 11 10 4
a 11 19 6
a 19 11 6
a 11 12 4
a 12 11 4
a 12 20 9
a 20 12 9
a 12 13 4
a 13 12 4
a 13 21 7
a 21 13 7
a 13 14 5
a 14 13 5
a 14 22 7
a 22 14 7
a 14 15 10
a 15 14 10
a 15 23 5
a 23 15 5
a 15 16 7
a 16 15 7
a 16 24 4
a 24 16 4
a 17 25 10
a 25 17 10
a 17 18 6
a 18 17 6
a 18 26 1
a 26 18 1
a 18 19 8
a 19 18 8
a 19 27 8
a 27 19 8
a 19 20 2
a 20 19 2
a 20 28 3
a 28 20 3
a 20 21 3
a 21 20 3
a 21 29 4
a 29 21 4
a 21 22 10
a 22 21 10
a 22 23 3
a 23 22 3
a 23 31 7
a 31 23 7
a 23 24 8
a 24 23 8
a 24 32 7
a 32 24 7
a 25 33 7
a 33 25 7
a 25 26 1
a 26 25 1
a 26 34 4
a 34 26 4
a 26 27 2
a 27 26 2
a 27 35 5
a 35 27 5
a 27 28 3
a 28 27 3
a 28 36 6
a 36 28 6
a 28 29 9
a 29 28 9
a 29 37 4
a 37 29 4
a 31 39 1
a 39 31 1
a 31 32 2
a 32 31 2
a 32 40 3
a 40 32 3
a 33 41 4
a 41 33 4
a 33 34 5
a 34 33 5
a 34 42 10
a 42 34 10
a 34 35 4
a 35 34 4
a 35 43 6
a 43 35 6
a 35 36 8
a 36 35 8
a 36 44 2
a 44 36 2
a 36 37 6
a 37 36 6
a 37 45 9
a 45 37 9
a 37 38 1
a 38 37 1
a 38 46 8
a 46 38 8
a 38 39 2
a 39 38 2
a 39 47 8
a 47 39 8
a 39 40 4
a 40 39 4
a 40 48 5
a 48 40 5
a 41 49 3
a 49 41 3
a 41 42 9
a 42 41 9
a 42 50 6
a 50 42 6
a 42 43 10
a 43 42 10
a 43 51 4
a 51 43 4
a 43 44 9
a 44 43 9
a 44 52 3
a 52 44 3
a 44 45 2
a 45 44 2
a 45 53 5
a 53 45 5
a 45 46 2
a 46 45 2
a 46 54 10
a 54 46 10
a 46 47 10
a 47 46 10
a 47 55 4
a 55 47 4
a 47 48 1
a 48 47 1
a 48 56 10
a 56 48 10
a 49 50 6
a 50 49 6
a 50 58 7
a 58 50 7
a 50 51 3
a 51 50 3
a 51 59 7
a 59 51 7
a 51 52 7
a 52 51 7
a 52 60 6
a 60 52 6
a 52 53 7
a 53 52 7
a 53 61 2
a 61 53 2
a 53 54 7
a 54 53 7
a 54 62 2
a 62 54 2
a 54 55 8
a 55 54 8
a 55 63 5
a 63 55 5
a 55 56 8
a 56 55 8
a 56 64 7
a 64 56 7
a 58 59 6
a 59 58 6
a 59 60 6
a 60 59 6
a 60 61 9
a 61 60 9
a 61 62 1
a 62 61 1
a 62 63 3
a 63 62 3
a 63 64 5
a 64 63 5
